jobs  (incl. supersource/sink ):	52
RESOURCES
- renewable                 : 4 R
- nonrenewable              : 4 N
- doubly constrained        : 0 D
************************************************************************
PRECEDENCE RELATIONS:
jobnr.    #modes  #successors   successors
1	1	15		2 3 4 5 6 7 8 9 11 12 14 15 16 18 19 
2	6	9		51 50 27 22 21 20 17 13 10 
3	6	15		51 50 49 47 46 45 44 39 31 25 24 22 21 20 17 
4	6	13		51 49 46 45 44 39 33 32 30 28 24 23 22 
5	6	8		48 44 43 39 32 31 20 13 
6	6	11		49 47 45 44 40 39 30 26 25 24 21 
7	6	10		50 48 45 43 37 31 28 27 24 20 
8	6	10		49 48 47 45 40 39 37 24 23 20 
9	6	9		51 49 46 43 30 29 26 24 23 
10	6	12		48 47 46 45 44 40 39 37 36 32 30 23 
11	6	10		47 44 41 40 39 38 37 32 24 20 
12	6	9		47 46 44 39 31 30 26 24 21 
13	6	10		46 45 42 41 40 38 37 35 30 24 
14	6	10		45 42 40 39 38 37 35 31 30 24 
15	6	9		50 46 43 42 41 36 35 30 25 
16	6	5		41 39 35 25 24 
17	6	6		41 40 37 36 33 30 
18	6	6		43 40 39 36 31 30 
19	6	5		48 43 40 35 32 
20	6	4		42 36 35 30 
21	6	4		43 38 35 34 
22	6	4		41 38 37 34 
23	6	3		38 35 31 
24	6	2		36 34 
25	6	2		37 34 
26	6	2		37 35 
27	6	2		41 36 
28	6	2		38 35 
29	6	2		44 42 
30	6	1		34 
31	6	1		34 
32	6	1		34 
33	6	1		34 
34	6	1		52 
35	6	1		52 
36	6	1		52 
37	6	1		52 
38	6	1		52 
39	6	1		52 
40	6	1		52 
41	6	1		52 
42	6	1		52 
43	6	1		52 
44	6	1		52 
45	6	1		52 
46	6	1		52 
47	6	1		52 
48	6	1		52 
49	6	1		52 
50	6	1		52 
51	6	1		52 
52	1	0		
************************************************************************
REQUESTS/DURATIONS
jobnr.	mode	dur	R1	R2	R3	R4	N1	N2	N3	N4	
------------------------------------------------------------------------
1	1	0	0	0	0	0	0	0	0	0	
2	1	10	4	3	4	3	28	6	26	10	
	2	11	4	3	4	3	28	5	23	9	
	3	12	4	3	3	2	28	3	23	7	
	4	16	4	3	3	2	27	3	21	6	
	5	20	4	3	3	1	27	1	18	5	
	6	30	4	3	2	1	27	1	16	2	
3	1	2	5	5	3	1	23	28	27	9	
	2	11	3	5	3	1	20	28	27	9	
	3	13	3	5	3	1	20	26	25	9	
	4	17	2	5	2	1	17	26	25	9	
	5	27	2	5	2	1	16	24	23	9	
	6	29	1	5	2	1	16	23	23	9	
4	1	5	4	3	2	3	24	13	15	30	
	2	10	4	3	2	3	23	11	13	28	
	3	12	4	3	2	2	19	8	11	27	
	4	19	4	2	1	2	17	5	9	26	
	5	22	4	1	1	1	15	4	5	25	
	6	28	4	1	1	1	10	1	5	25	
5	1	2	3	5	4	1	29	22	17	29	
	2	3	2	4	4	1	29	21	16	28	
	3	15	2	3	4	1	28	21	16	28	
	4	22	2	3	4	1	27	19	14	28	
	5	25	1	2	4	1	26	17	13	28	
	6	27	1	2	4	1	26	16	13	28	
6	1	4	5	5	2	4	26	19	19	9	
	2	5	4	4	2	3	26	17	16	8	
	3	10	4	3	2	3	26	17	16	7	
	4	13	3	3	2	3	25	16	14	6	
	5	15	3	1	2	1	24	15	10	4	
	6	16	3	1	2	1	24	14	7	2	
7	1	4	2	3	4	3	23	16	14	14	
	2	15	2	3	4	3	22	15	13	13	
	3	17	2	3	4	3	22	14	12	13	
	4	22	2	2	3	3	21	12	12	13	
	5	24	2	1	3	3	21	12	11	12	
	6	30	2	1	3	3	21	11	11	12	
8	1	7	5	5	4	4	24	19	11	26	
	2	11	4	4	4	3	20	15	9	25	
	3	16	3	4	4	3	16	11	9	25	
	4	20	2	4	4	2	13	9	8	23	
	5	26	1	4	4	2	11	5	6	23	
	6	28	1	4	4	1	7	2	6	21	
9	1	3	1	5	4	2	9	28	24	22	
	2	6	1	3	4	2	9	25	23	18	
	3	13	1	3	4	2	9	23	22	15	
	4	19	1	3	4	1	8	19	20	12	
	5	22	1	2	4	1	7	18	20	10	
	6	30	1	1	4	1	7	15	18	7	
10	1	2	5	3	4	2	3	25	23	18	
	2	7	3	3	4	2	3	24	18	17	
	3	10	3	3	4	2	3	23	16	17	
	4	11	3	2	4	2	3	23	10	17	
	5	18	2	2	4	2	3	22	7	17	
	6	27	1	2	4	2	3	21	2	17	
11	1	2	2	4	4	5	28	9	11	21	
	2	9	1	3	3	5	21	6	9	19	
	3	15	1	3	3	5	17	6	7	17	
	4	21	1	3	2	5	14	4	6	15	
	5	23	1	3	2	5	9	4	5	14	
	6	24	1	3	1	5	9	3	3	14	
12	1	12	3	4	5	4	22	18	27	17	
	2	17	3	3	5	3	21	16	23	13	
	3	18	3	3	5	3	18	14	23	11	
	4	23	2	2	5	2	12	14	21	7	
	5	25	2	2	5	1	8	12	18	6	
	6	27	2	2	5	1	4	10	16	3	
13	1	5	4	4	5	5	4	20	17	24	
	2	15	4	4	5	5	4	16	17	22	
	3	16	4	4	5	5	3	15	17	19	
	4	19	3	4	5	5	3	11	17	15	
	5	23	3	4	5	5	1	8	17	13	
	6	24	3	4	5	5	1	5	17	13	
14	1	3	5	5	3	4	12	18	20	25	
	2	7	4	4	2	4	12	14	18	22	
	3	15	4	3	2	4	9	10	18	19	
	4	16	4	3	2	3	8	7	16	16	
	5	20	4	2	2	2	3	5	12	9	
	6	24	4	2	2	2	1	4	11	4	
15	1	2	2	3	1	3	16	14	6	4	
	2	3	2	3	1	3	14	11	6	4	
	3	4	2	3	1	3	14	9	6	3	
	4	12	2	3	1	3	12	8	6	3	
	5	13	2	2	1	3	11	6	6	2	
	6	24	2	2	1	3	9	5	6	1	
16	1	1	5	1	1	2	22	12	20	13	
	2	7	5	1	1	2	20	11	20	12	
	3	15	5	1	1	2	19	9	20	12	
	4	19	5	1	1	2	18	9	20	12	
	5	22	5	1	1	2	14	7	20	12	
	6	25	5	1	1	2	13	6	20	12	
17	1	11	5	3	3	5	23	26	27	18	
	2	12	4	2	3	4	23	23	22	17	
	3	13	3	2	3	3	22	19	20	16	
	4	16	3	2	3	3	21	18	19	16	
	5	18	3	1	3	1	21	13	16	15	
	6	28	2	1	3	1	20	13	16	15	
18	1	6	5	3	2	1	17	14	18	25	
	2	16	5	2	2	1	14	10	17	24	
	3	19	5	2	2	1	12	8	16	21	
	4	21	5	2	2	1	12	5	14	21	
	5	26	5	2	1	1	10	4	13	18	
	6	28	5	2	1	1	7	2	12	16	
19	1	2	4	3	4	2	21	27	21	22	
	2	7	4	3	4	2	18	22	20	22	
	3	14	4	3	4	2	17	21	17	21	
	4	22	4	2	4	2	17	15	17	20	
	5	23	3	2	4	2	15	13	15	18	
	6	29	3	2	4	2	14	12	12	18	
20	1	1	4	5	3	5	11	28	22	29	
	2	12	4	5	3	5	10	23	20	28	
	3	13	3	5	3	5	10	23	19	28	
	4	14	3	5	3	5	8	17	17	28	
	5	15	2	5	3	5	8	15	14	28	
	6	30	1	5	3	5	7	13	12	28	
21	1	12	2	3	1	3	3	25	12	5	
	2	13	2	3	1	3	3	24	11	4	
	3	16	2	3	1	3	3	21	11	4	
	4	19	2	2	1	3	3	18	11	3	
	5	23	1	1	1	3	3	16	11	2	
	6	28	1	1	1	3	3	12	11	2	
22	1	16	3	2	4	4	26	21	23	20	
	2	17	2	2	4	4	25	19	23	19	
	3	20	2	2	4	4	25	17	15	16	
	4	21	1	2	4	4	25	12	12	14	
	5	22	1	1	3	3	25	8	10	12	
	6	29	1	1	3	3	25	1	4	10	
23	1	4	4	2	4	5	23	17	23	22	
	2	8	4	2	3	4	23	15	22	22	
	3	10	3	2	3	3	22	15	21	22	
	4	16	3	2	3	3	19	15	19	21	
	5	18	2	2	3	2	19	13	19	21	
	6	25	1	2	3	1	18	13	18	21	
24	1	3	4	4	5	1	25	12	4	12	
	2	7	3	4	4	1	24	10	3	11	
	3	11	2	4	3	1	24	9	3	9	
	4	24	2	4	2	1	24	9	3	8	
	5	25	1	4	2	1	24	7	3	5	
	6	28	1	4	1	1	24	6	3	4	
25	1	3	5	3	4	4	18	18	15	19	
	2	6	3	2	3	4	18	18	15	16	
	3	13	3	2	3	4	17	15	14	15	
	4	17	2	1	2	4	15	14	14	13	
	5	27	1	1	1	3	14	13	14	13	
	6	29	1	1	1	3	14	11	13	11	
26	1	1	1	4	5	4	17	20	4	18	
	2	12	1	4	4	4	16	16	4	15	
	3	19	1	4	3	3	15	14	4	13	
	4	21	1	4	2	3	14	9	4	12	
	5	24	1	4	2	2	13	5	4	10	
	6	26	1	4	1	2	12	4	4	8	
27	1	8	1	2	4	4	23	11	13	25	
	2	26	1	2	3	3	23	9	12	24	
	3	27	1	2	2	3	22	7	12	22	
	4	28	1	2	2	3	20	6	11	19	
	5	29	1	1	2	2	18	4	9	19	
	6	30	1	1	1	2	17	3	8	17	
28	1	10	3	3	5	1	11	23	16	17	
	2	14	2	3	3	1	8	17	13	15	
	3	16	2	3	3	1	7	14	12	15	
	4	17	2	3	2	1	5	10	9	14	
	5	25	2	3	2	1	3	6	7	13	
	6	28	2	3	1	1	2	6	6	13	
29	1	3	2	3	2	2	22	2	18	26	
	2	11	1	2	2	2	19	2	14	26	
	3	17	1	2	2	2	18	2	10	25	
	4	24	1	1	2	2	17	2	9	25	
	5	27	1	1	2	2	13	2	4	24	
	6	29	1	1	2	2	9	2	3	24	
30	1	2	2	2	2	2	26	28	24	10	
	2	3	1	2	2	2	26	21	21	9	
	3	5	1	2	2	2	26	16	15	9	
	4	6	1	2	2	2	26	11	13	9	
	5	14	1	2	2	1	25	7	10	9	
	6	18	1	2	2	1	25	3	4	9	
31	1	14	3	3	4	2	20	10	27	23	
	2	21	3	2	3	2	16	10	23	20	
	3	22	3	2	3	2	16	9	21	19	
	4	25	2	2	2	2	10	9	19	18	
	5	27	2	1	1	2	7	9	17	17	
	6	28	1	1	1	2	7	8	12	17	
32	1	9	3	4	2	3	26	26	11	19	
	2	17	3	3	2	3	26	25	11	17	
	3	24	3	3	2	3	24	25	9	17	
	4	28	2	3	2	3	19	24	6	16	
	5	29	2	2	2	3	17	24	4	15	
	6	30	2	2	2	3	16	24	2	14	
33	1	3	4	5	4	3	16	12	19	22	
	2	16	3	5	4	2	14	8	19	21	
	3	21	3	5	4	2	14	7	19	17	
	4	24	2	5	4	1	12	6	19	16	
	5	25	1	5	4	1	12	4	19	11	
	6	26	1	5	4	1	10	1	19	9	
34	1	7	4	3	3	2	21	21	24	26	
	2	13	3	2	2	2	20	19	21	25	
	3	18	3	2	2	2	20	15	15	25	
	4	20	3	2	2	2	20	15	14	24	
	5	22	3	2	2	2	20	13	9	23	
	6	28	3	2	2	2	20	10	7	21	
35	1	4	4	3	2	4	15	22	29	28	
	2	15	3	3	2	3	11	20	29	27	
	3	18	3	3	2	3	10	19	29	27	
	4	23	3	2	2	2	10	18	29	27	
	5	25	2	2	2	1	6	17	29	25	
	6	27	2	2	2	1	6	17	29	24	
36	1	8	3	5	4	5	27	11	25	24	
	2	12	2	4	4	4	26	11	25	23	
	3	14	2	4	4	4	25	11	23	20	
	4	15	2	4	4	4	25	11	19	18	
	5	21	2	3	4	4	24	11	17	16	
	6	30	2	3	4	4	24	11	16	16	
37	1	9	1	4	3	3	19	20	24	9	
	2	11	1	3	3	2	18	20	20	9	
	3	18	1	2	3	2	18	20	18	8	
	4	24	1	2	2	2	18	20	12	8	
	5	25	1	2	1	2	18	20	10	7	
	6	27	1	1	1	2	18	20	8	7	
38	1	9	1	3	3	3	25	19	15	25	
	2	15	1	2	3	3	22	18	15	20	
	3	17	1	2	3	2	21	17	15	16	
	4	18	1	1	2	2	18	16	15	16	
	5	21	1	1	1	2	18	15	15	8	
	6	26	1	1	1	1	15	15	15	7	
39	1	10	1	4	4	4	18	6	30	28	
	2	15	1	4	3	3	16	6	24	28	
	3	16	1	3	3	3	15	5	20	28	
	4	17	1	3	2	3	14	4	16	27	
	5	20	1	2	1	2	13	2	15	27	
	6	24	1	2	1	1	13	1	10	27	
40	1	6	3	1	3	4	30	13	25	16	
	2	10	3	1	2	3	29	11	25	16	
	3	12	3	1	2	3	27	10	25	15	
	4	23	2	1	1	2	27	7	24	13	
	5	24	1	1	1	2	26	3	23	12	
	6	29	1	1	1	1	25	1	23	12	
41	1	1	4	2	5	1	12	20	10	21	
	2	2	3	2	4	1	11	15	8	21	
	3	12	3	2	4	1	11	14	8	20	
	4	13	3	2	4	1	10	13	8	20	
	5	15	2	2	3	1	9	10	7	19	
	6	26	2	2	3	1	8	8	6	19	
42	1	2	3	1	4	4	24	21	19	28	
	2	7	3	1	4	4	22	17	16	27	
	3	9	3	1	4	3	21	15	13	27	
	4	10	3	1	4	3	20	12	8	27	
	5	25	3	1	3	2	20	9	6	27	
	6	30	3	1	3	2	18	8	2	27	
43	1	8	4	5	4	3	17	19	25	12	
	2	9	4	4	4	2	16	17	21	11	
	3	17	3	4	4	2	16	15	16	10	
	4	24	2	4	4	2	16	12	10	9	
	5	26	1	4	4	2	16	10	9	8	
	6	29	1	4	4	2	16	9	5	8	
44	1	1	4	2	3	3	27	21	22	23	
	2	3	3	1	3	3	26	20	15	23	
	3	4	3	1	3	3	23	19	14	22	
	4	8	2	1	2	3	21	17	8	20	
	5	11	1	1	1	2	19	15	5	20	
	6	24	1	1	1	2	18	13	4	19	
45	1	4	5	5	5	3	28	20	3	24	
	2	10	5	4	4	2	23	20	3	21	
	3	11	5	4	4	2	20	19	3	18	
	4	12	5	3	3	2	15	19	2	14	
	5	28	5	3	3	1	12	18	2	10	
	6	29	5	3	3	1	10	17	2	6	
46	1	5	5	1	2	3	22	15	27	12	
	2	6	4	1	2	3	21	13	27	11	
	3	11	4	1	2	3	16	12	27	7	
	4	25	4	1	2	3	15	11	27	7	
	5	26	3	1	2	3	10	8	27	4	
	6	28	3	1	2	3	8	7	27	3	
47	1	6	2	4	3	5	26	26	18	20	
	2	14	1	4	3	3	22	21	17	14	
	3	18	1	4	3	3	18	20	17	11	
	4	21	1	4	3	2	12	15	17	8	
	5	26	1	4	3	1	6	11	17	7	
	6	27	1	4	3	1	3	9	17	3	
48	1	15	5	1	5	3	26	7	26	16	
	2	16	4	1	5	2	25	7	25	15	
	3	18	3	1	5	2	24	7	23	15	
	4	19	3	1	5	1	24	7	22	15	
	5	20	2	1	5	1	24	7	22	15	
	6	29	2	1	5	1	23	7	21	15	
49	1	1	4	3	5	4	14	29	9	24	
	2	7	4	2	4	4	14	26	7	21	
	3	9	3	2	4	4	14	21	7	20	
	4	18	3	2	3	3	14	18	5	19	
	5	22	2	2	3	3	13	15	5	16	
	6	30	2	2	3	2	13	14	4	15	
50	1	2	4	4	5	1	25	3	25	18	
	2	3	4	3	4	1	20	3	22	18	
	3	14	4	3	4	1	19	2	20	17	
	4	18	4	2	4	1	14	2	15	14	
	5	22	4	1	3	1	9	1	15	14	
	6	30	4	1	3	1	7	1	12	12	
51	1	7	3	3	3	3	21	22	25	13	
	2	8	3	2	3	3	20	18	23	13	
	3	14	3	2	3	3	20	16	20	13	
	4	22	3	2	2	3	20	10	13	12	
	5	26	3	1	2	3	19	8	12	12	
	6	30	3	1	2	3	19	4	10	12	
52	1	0	0	0	0	0	0	0	0	0	
************************************************************************

 RESOURCE AVAILABILITIES 
	R 1	R 2	R 3	R 4	N 1	N 2	N 3	N 4
	42	44	39	40	845	672	753	815

************************************************************************
